(set-logic ALL)
(declare-fun var0 () String)
(assert (str.in_re var0 (re.++ (re.* (re.* (str.to_re "0"))) (re.++ (re.union (re.union (str.to_re "1") (str.to_re "222")) (re.union (str.to_re "3") (str.to_re "444"))) (re.++ (re.union (re.union (str.to_re "555") (str.to_re "666")) (re.union (str.to_re "777") (str.to_re "888"))) (re.++ (re.+ (re.union (str.to_re "9") (str.to_re "a"))) (re.++ (re.union (re.union (str.to_re "bb") (str.to_re "c")) (re.union (str.to_re "ddd") (str.to_re "eee"))) (re.++ (re.union (re.+ (str.to_re "fff")) (re.+ (str.to_re "gg"))) (re.++ (re.* (re.* (str.to_re "h"))) (re.++ (re.+ (re.union (str.to_re "i") (str.to_re "j"))) (re.++ (re.union (re.+ (str.to_re "kk")) (re.+ (str.to_re "ll"))) (re.++ (re.+ (re.+ (str.to_re "mm"))) (re.++ (re.union (re.* (str.to_re "nnn")) (re.* (str.to_re "ooo"))) (re.++ (re.union (re.+ (str.to_re "ppp")) (re.+ (str.to_re "qq"))) (re.++ (re.union (re.union (str.to_re "r") (str.to_re "s")) (re.union (str.to_re "tt") (str.to_re "uuu"))) (re.++ (re.union (re.union (str.to_re "vv") (str.to_re "w")) (re.union (str.to_re "xx") (str.to_re "yy"))) (re.++ (re.+ (re.* (str.to_re "zzz"))) (re.++ (re.* (re.* (str.to_re "AA"))) (re.++ (re.+ (re.union (str.to_re "B") (str.to_re "CC"))) (re.++ (re.union (re.+ (str.to_re "DDD")) (re.+ (str.to_re "E"))) (re.++ (re.+ (re.* (str.to_re "FFF"))) (re.++ (re.union (re.* (str.to_re "G")) (re.* (str.to_re "HHH"))) (re.++ (re.+ (re.+ (str.to_re "III"))) (re.++ (re.+ (re.* (str.to_re "JJJ"))) (re.++ (re.+ (re.union (str.to_re "KK") (str.to_re "LL"))) (re.++ (re.+ (re.* (str.to_re "MM"))) (re.++ (re.+ (re.+ (str.to_re "NNN"))) (re.++ (re.* (re.+ (str.to_re "O"))) (re.++ (re.+ (re.union (str.to_re "PP") (str.to_re "QQ"))) (re.++ (re.+ (re.union (str.to_re "RRR") (str.to_re "S"))) (re.++ (re.* (re.union (str.to_re "T") (str.to_re "UU"))) (re.++ (re.union (re.* (str.to_re "VVV")) (re.* (str.to_re "WW"))) (re.++ (re.union (re.+ (str.to_re "XX")) (re.+ (str.to_re "Y"))) (re.++ (re.union (re.+ (str.to_re "ZZZ")) (re.+ (str.to_re "!"))) (re.++ (re.* (re.* (str.to_re """"""))) (re.++ (re.* (re.union (str.to_re "##") (str.to_re "$"))) (re.++ (re.* (re.union (str.to_re "%%") (str.to_re "&&&"))) (re.++ (re.union (re.+ (str.to_re "''")) (re.+ (str.to_re "("))) (re.++ (re.union (re.union (str.to_re ")") (str.to_re "*")) (re.union (str.to_re "+++") (str.to_re ",,,"))) (re.++ (re.union (re.union (str.to_re "-") (str.to_re "..")) (re.union (str.to_re "/") (str.to_re ":"))) (re.++ (re.+ (re.* (str.to_re ";"))) (re.++ (re.+ (re.+ (str.to_re "<<"))) (re.++ (re.* (re.* (str.to_re "=="))) (re.++ (re.* (re.union (str.to_re ">>") (str.to_re "?"))) (re.++ (re.union (re.+ (str.to_re "@")) (re.+ (str.to_re "["))) (re.++ (re.+ (re.+ (str.to_re "\\"))) (re.++ (re.* (re.* (str.to_re "]]"))) (re.++ (re.union (re.* (str.to_re "^^")) (re.* (str.to_re "___"))) (re.++ (re.+ (re.union (str.to_re "``") (str.to_re "{"))) (re.++ (re.union (re.+ (str.to_re "|")) (re.+ (str.to_re "}"))) (re.++ (re.+ (re.+ (str.to_re "~~"))) (re.+ (re.union (str.to_re "0") (str.to_re "1"))))))))))))))))))))))))))))))))))))))))))))))))))))))
(check-sat)